benchmarks_vrp/CMT1/fixed_c_size/CMT1_3.vrp
NAME: CMT1_3
TYPE: CVRP
COMMENT: 524.61 - Cluster Nr.3
DIMENSION: 13
CAPACITY: 160
EDGE_WEIGHT_TYPE: EUC_2D
NODE_COORD_TYPE: TWOD_COORDS
NODE_COORD_SECTION: 
1 38 46
2 52 41
11 42 57
13 49 49
10 52 64
8 58 48
4 30 40
12 43 67
3 62 42
5 42 41
6 57 58
7 62 63
9 63 69
DEPOT_SECTION: 
4
-1
DEMAND_SECTION: 
10 16
12 14
4 0
7 17
1 12
5 19
9 6
11 8
3 8
6 28
8 6
13 30
2 15
EOF
