benchmarks_vrp/CMT1/fixed_c_size/CMT1_3.tour
NAME: CMT1_3 solution
TYPE: TOUR
TOUR_SECTION:
4 5 -1
4 1 13 2 3 8 6 7 9 10 12 11 -1
-1
EOF